20	2
7	8	
0	0	0	7	2	3	4	6	11	12	19	
7	2	3	3	14	10	9	
403	2	3	3	8	5	15	
1075	2	2	1	10	
19	2	2	1	20	
12	2	2	1	7	
678	2	3	1	16	
18	2	3	1	17	
14	2	2	1	20	
664	2	3	1	13	
658	2	2	3	17	18	16	
15	2	2	1	20	
566	2	2	1	20	
721	2	3	1	20	
13	2	3	1	18	
17	2	2	1	20	
5	2	2	1	20	
499	2	2	1	20	
14	2	3	1	20	
0	0	0	0	